44477.0
1647
0 1 3 5 6 7 8 10 11 12 13 16 17 18 19 20 21 22 23 24 26 28 29 30 31 32 33 34 36 38 39 40 43 44 45 47 49 50 51 53 54 55 57 58 60 61 64 65 67 70 73 74 76 77 81 82 84 85 86 87 89 90 92 93 94 